p tw 50 356
e 0 3
e 0 4
e 0 12
e 0 20
e 0 21
e 0 22
e 0 29
e 0 30
e 0 32
e 0 36
e 0 46
e 1 15
e 1 18
e 1 20
e 1 30
e 1 34
e 1 38
e 1 40
e 1 42
e 1 43
e 1 45
e 1 48
e 1 49
e 2 6
e 2 8
e 2 10
e 2 12
e 2 14
e 2 15
e 2 17
e 2 18
e 2 21
e 2 23
e 2 24
e 2 28
e 2 30
e 2 39
e 2 42
e 2 45
e 2 49
e 3 5
e 3 8
e 3 10
e 3 11
e 3 12
e 3 13
e 3 14
e 3 20
e 3 22
e 3 27
e 3 30
e 3 31
e 3 33
e 3 35
e 3 36
e 3 37
e 3 38
e 3 39
e 3 44
e 4 6
e 4 9
e 4 10
e 4 16
e 4 19
e 4 21
e 4 25
e 4 29
e 4 31
e 4 32
e 4 35
e 4 37
e 4 43
e 4 44
e 4 45
e 5 6
e 5 14
e 5 21
e 5 22
e 5 24
e 5 30
e 5 33
e 5 35
e 5 36
e 5 40
e 5 41
e 5 42
e 5 47
e 6 8
e 6 11
e 6 19
e 6 21
e 6 24
e 6 38
e 6 44
e 7 8
e 7 14
e 7 17
e 7 20
e 7 22
e 7 25
e 7 28
e 7 30
e 7 31
e 7 39
e 7 41
e 7 42
e 7 44
e 8 10
e 8 11
e 8 14
e 8 15
e 8 28
e 8 36
e 8 44
e 8 46
e 8 47
e 8 49
e 9 14
e 9 16
e 9 18
e 9 25
e 9 26
e 9 27
e 9 32
e 9 49
e 10 15
e 10 20
e 10 22
e 10 23
e 10 31
e 10 34
e 10 36
e 10 39
e 10 40
e 10 41
e 10 42
e 10 44
e 10 46
e 10 47
e 11 14
e 11 15
e 11 19
e 11 41
e 11 42
e 11 44
e 11 48
e 12 14
e 12 15
e 12 17
e 12 18
e 12 20
e 12 23
e 12 25
e 12 28
e 12 30
e 12 31
e 12 37
e 12 39
e 12 40
e 12 41
e 12 42
e 12 43
e 12 44
e 13 16
e 13 17
e 13 20
e 13 22
e 13 30
e 13 33
e 13 37
e 13 39
e 13 40
e 13 47
e 14 17
e 14 18
e 14 19
e 14 22
e 14 27
e 14 28
e 14 31
e 14 39
e 14 41
e 14 43
e 14 49
e 15 23
e 15 24
e 15 26
e 15 30
e 15 33
e 15 39
e 15 41
e 15 42
e 15 44
e 15 47
e 16 20
e 16 22
e 16 23
e 16 26
e 16 33
e 16 34
e 16 37
e 16 43
e 16 44
e 16 45
e 16 47
e 17 23
e 17 24
e 17 27
e 17 30
e 17 34
e 17 41
e 17 42
e 17 44
e 17 45
e 18 20
e 18 22
e 18 25
e 18 34
e 18 43
e 18 46
e 19 21
e 19 27
e 19 28
e 19 33
e 19 35
e 19 36
e 19 41
e 19 43
e 19 44
e 19 45
e 19 46
e 19 49
e 20 22
e 20 27
e 20 39
e 20 41
e 20 43
e 20 48
e 21 24
e 21 25
e 21 30
e 21 37
e 22 27
e 22 40
e 23 31
e 23 33
e 23 38
e 23 41
e 23 46
e 23 47
e 23 48
e 24 26
e 24 34
e 24 36
e 24 42
e 24 45
e 24 48
e 24 49
e 25 28
e 25 30
e 25 34
e 25 38
e 25 39
e 25 45
e 25 46
e 25 48
e 25 49
e 26 28
e 26 29
e 26 32
e 26 37
e 26 39
e 26 44
e 26 45
e 26 47
e 27 29
e 27 30
e 27 32
e 27 34
e 27 37
e 27 38
e 27 41
e 27 42
e 27 48
e 28 29
e 28 30
e 28 31
e 28 41
e 28 43
e 28 44
e 28 49
e 29 34
e 29 35
e 29 38
e 29 43
e 29 48
e 30 33
e 30 35
e 30 36
e 30 45
e 30 48
e 31 35
e 31 36
e 31 39
e 31 42
e 31 49
e 32 35
e 32 36
e 32 41
e 32 44
e 32 45
e 32 49
e 33 34
e 33 35
e 33 38
e 33 42
e 33 43
e 33 47
e 33 48
e 33 49
e 34 35
e 34 36
e 34 45
e 34 47
e 35 38
e 35 39
e 35 43
e 35 48
e 35 49
e 36 45
e 36 46
e 36 48
e 37 40
e 37 42
e 38 44
e 38 45
e 38 46
e 38 47
e 39 41
e 39 43
e 39 45
e 39 49
e 40 41
e 40 47
e 41 42
e 41 45
e 41 47
e 41 49
e 42 48
e 44 47
e 44 48
e 44 49
e 46 47
e 46 48
e 46 49
e 47 48
